unsat
(:cnf-encoding-aux-vars   141
 :eliminated-applications 1
 :eliminated-vars         128
 :max-memory              19.32
 :memory                  18.62
 :nlsat-conflicts         9
 :nlsat-decisions         10
 :nlsat-learned-added     8
 :nlsat-propagations      35
 :num-allocs              22941
 :rlimit-count            80820
 :time                    0.02
 :total-time              0.04)
